db/inputs/72743968111833007325792954131448316.smt2
(set-logic QF_FP)
(declare-const x0 (_ FloatingPoint 8 24))
(declare-const x1 (_ FloatingPoint 8 24))
(declare-const x2 (_ FloatingPoint 8 24))
(declare-const x3 (_ FloatingPoint 8 24))
(declare-const x4 (_ FloatingPoint 8 24))
(declare-const x5 (_ FloatingPoint 8 24))
(declare-const x6 (_ FloatingPoint 8 24))
(declare-const x7 (_ FloatingPoint 8 24))
(declare-const x8 (_ FloatingPoint 8 24))
(assert (fp.gt (fp.neg x5) (fp.sub RNE x5 x1)))
(assert (fp.gt (fp.mul RNE x6 x4) (fp.sub RNE x3 x0)))
(assert (fp.lt (fp.mul RNE x8 x7) (fp.add RNE x6 x3)))
(assert (fp.eq (fp.add RNE x2 x1) (fp.add RNE x1 x8)))
(assert (fp.geq (fp.sub RNE x3 x6) (fp.div RNE x8 x8)))
(assert (fp.geq (fp.neg x5) (fp.neg x1)))
(assert (fp.leq (fp.mul RNE x1 x8) (fp.sub RNE x6 x2)))
(assert (fp.lt (fp.mul RNE x3 x7) (fp.add RNE x2 x8)))
(check-sat)
