db/data/72743968111833007325792954131448316.z3.out
sat
-------------------
8.083435515
